20
2
20164
386 71
true
0.25
41 25 30 28 21 8 32 29 9 12 8 46 26 45 12 46 38 45 18 13
45 38 46 15 10 35 35 39 32 31 19 12 47 25 29 40 1 30 32 35
-97 -9 83 51 62 34 0 -16 77 -66 91 -26 -94 -70 -82 -64 1 -8 -84 -10
0 0 0 44 0 0 0 0 0 21 63 -83 0 0 -86 0 0 0 0 0
0 -67 -86 0 0 0 0 -78 0 0 0 0 -35 0 -44 -47 0 0 0
0 0 0 0 -36 0 0 0 0 0 0 0 0 0 0 0 11 0
0 0 0 0 0 0 0 -74 0 0 89 0 0 0 0 0 0
0 -94 0 0 58 -73 -89 0 0 0 0 0 11 0 0 0
0 0 0 0 49 0 -81 0 0 0 0 0 0 0 0
0 -99 -76 0 0 0 0 0 32 0 0 0 75 0
0 84 0 97 0 0 -97 0 0 0 0 0 0
0 0 65 0 0 0 0 0 0 0 0 -12
0 28 0 0 0 0 -57 0 0 -40 0
0 9 27 -77 0 -55 0 -71 0 0
0 0 0 0 0 -24 0 -82 0
0 0 0 0 89 0 0 0
0 25 0 0 0 0 0
0 0 -56 0 0 83
0 0 0 0 0
0 29 0 0
0 0 0
0 0
0 0 -68 -46 0 0 29 0 0 0 84 0 92 0 -31 0 -90 0 0
0 0 0 -49 0 0 0 96 0 0 0 0 0 0 0 0 0 0
0 0 0 0 0 0 69 -78 0 0 0 -6 0 0 0 0 0
0 0 33 95 0 0 0 0 0 -65 0 0 80 0 0 0
0 67 0 0 58 0 0 -78 0 -41 0 0 0 0 0
0 -6 0 0 0 0 0 -9 0 0 -72 27 -90 0
0 0 0 0 0 -44 0 0 0 -45 0 0 0
0 0 0 0 0 0 0 0 0 0 0 0
0 -97 0 0 0 0 0 0 0 0 -5
0 -82 27 52 0 0 0 0 0 0
0 0 0 -27 0 0 -39 0 0
0 0 -94 0 0 -29 0 0
0 0 0 0 0 0 0
0 0 0 61 0 0
0 0 0 -82 0
0 0 0 0
0 0 0
0 0
0
0 -61 -22 0 0 0 72 0 0 0 67 0 0 0 0 -72 0 -56
0 0 -4 17 0 0 0 0 0 0 0 0 -80 -56 0 0 0
0 0 0 0 0 -99 0 0 0 0 0 26 16 -29 0 0
0 0 0 -61 0 0 0 0 0 -2 0 0 0 0 0
0 0 0 -100 0 0 0 0 0 0 0 0 84 0
0 0 0 69 0 0 0 -87 0 0 7 -46 0
0 40 0 0 0 2 -85 0 0 0 0 0
0 0 0 0 0 0 0 0 0 0 0
0 0 0 0 -23 0 0 70 0 0
0 0 0 -35 0 0 0 0 0
0 0 0 0 22 0 0 0
0 0 1 0 0 -21 52
0 0 0 0 0 -88
0 0 0 0 77
0 0 0 0
0 0 0
0 0
0
0 0 0 0 0 -54 0 -40 0 0 99 0 -82 0 0 0 0
0 -57 0 0 0 0 0 0 94 0 0 0 0 0 -26 0
0 -37 0 0 -73 0 0 0 0 0 0 0 0 23 0
0 0 0 0 0 -53 0 70 -54 -71 0 0 0 0
0 52 0 0 0 -31 12 0 0 0 0 0 0
0 0 0 0 0 0 0 87 0 0 0 0
0 0 0 -83 0 0 0 0 0 0 -63
0 0 83 0 0 67 -99 0 0 0
0 92 0 0 99 0 100 -38 0
0 0 0 0 36 0 0 0
0 0 0 0 0 33 0
0 0 0 0 0 0
0 0 68 0 0
0 -25 52 0
0 0 0
0 0
0
0 0 0 0 0 0 0 0 0 0 -75 0 3 29 0 0
0 0 0 15 0 0 0 0 0 10 0 0 0 -85 0
0 0 0 0 0 0 24 0 -66 0 0 0 0 0
0 -94 0 0 0 0 0 0 -69 0 0 0 0
0 0 0 0 0 0 0 0 94 0 -78 0
0 -30 0 0 0 0 0 0 0 0 0
0 11 -74 0 0 0 7 0 0 0
0 0 0 0 0 0 0 72 0
0 -88 0 21 0 0 0 45
0 3 0 94 -39 0 0
0 0 0 0 0 63
0 56 0 0 0
0 0 0 0
0 0 -87
0 56
0
0 0 0 50 0 0 0 -53 0 0 0 -91 0 0 0
0 0 0 0 0 0 0 72 16 96 0 0 0 0
0 -85 0 0 50 -46 0 100 0 0 23 0 0
0 92 0 34 0 0 0 0 -27 0 37 0
0 0 0 0 0 0 0 0 -95 0 0
0 0 0 0 0 -77 0 0 1 0
0 0 45 0 0 65 0 -67 0
0 0 0 -24 0 0 0 0
0 0 0 0 0 0 -98
0 -72 -5 -22 53 57
0 0 0 0 0
0 0 0 0
0 0 0
0 59
0
0 0 -31 -46 0 0 0 0 -4 0 0 0 73 0
0 0 61 0 -62 0 0 0 0 -40 -93 0 0
0 0 0 0 0 68 0 0 0 49 -19 0
0 0 98 89 0 0 57 0 0 0 0
0 -14 0 0 0 0 0 -58 0 0
0 -92 0 0 0 0 0 0 76
0 0 16 26 0 0 -8 0
0 0 48 0 0 0 0
0 0 0 0 0 0
0 0 -79 0 0
0 0 0 0
0 0 0
0 0
0
0 2 0 0 0 0 0 0 0 0 89 0 0
0 0 0 26 77 0 0 0 0 -91 0 85
0 0 0 0 0 0 0 0 -16 0 0
0 0 0 0 100 0 0 8 0 14
0 0 0 -90 0 0 -83 12 95
0 0 9 0 0 0 0 0
0 0 49 4 0 0 0
0 0 0 0 0 0
0 0 20 31 -49
0 0 0 0
0 0 0
0 0
0
0 0 0 0 0 0 -41 77 -99 0 0 16
0 8 0 -82 0 0 0 0 72 0 73
0 0 -71 0 0 59 0 0 -43 0
0 -72 0 0 5 0 0 0 0
0 0 0 0 0 0 0 0
0 0 0 0 -83 0 0
0 0 0 0 0 0
0 0 0 0 0
0 0 0 0
0 0 0
0 -46
0
0 0 0 0 0 0 0 0 0 0 0
0 0 0 0 0 0 0 10 0 0
0 -52 -23 0 0 0 0 0 64
0 0 4 0 -89 0 0 27
0 0 0 57 0 0 0
0 0 0 0 0 0
0 0 0 0 0
0 48 0 0
0 0 0
0 0
0
0 -4 0 -74 0 0 0 0 -35 -63
0 0 -22 0 0 0 0 0 0
0 -73 0 0 0 81 0 8
0 48 0 0 0 0 -53
0 0 0 0 -19 60
0 0 0 0 0
0 -63 0 0
0 20 0
0 0
0
0 0 0 0 0 0 53 0 0
0 0 -80 0 0 75 0 0
0 0 45 0 0 0 32
0 0 0 100 0 0
0 75 0 0 0
0 0 0 -64
0 0 0
0 -17
0
0 0 0 -46 0 0 0 0
0 0 0 0 0 91 0
0 0 0 0 0 0
0 0 0 0 -15
0 0 0 14
0 0 0
0 0
0
0 0 77 45 0 0 0
0 0 0 0 0 29
0 3 0 1 -100
0 0 12 0
0 0 -9
0 0
0
0 0 0 0 0 0
0 0 -25 -43 0
0 0 0 0
0 -97 0
0 0
0
0 0 0 0 16
0 0 0 0
0 86 90
0 33
0
0 0 85 0
0 0 0
0 74
0
0 0 0
0 61
0
0 0
0
0
-541 -801 147 -502 -80 -385 128 -417 374 -303 -143 -17 -306 213 -146 181 157 -88 69 524
-12.608672086720867 -26.559473684210523 4.047826086956522 -25.69761904761905 -5.904761904761905 -29.5625 3.8285714285714283 -12.535809018567639 26.62152777777778 -17.512096774193548 -12.700657894736842 -0.8931159420289856 -9.139934533551555 6.626666666666667 -8.600574712643677 4.229891304347826 80.5657894736842 -2.444444444444444 2.994791666666667 27.63956043956044
